c [by 2] add irredundant clauses multiple times
3 -10 0
-4 -10 0
4 10 0
-4 -13 0
4 13 0
1 5 0
7 10 0
9 -10 0
-9 10 0
-5 8 0
1 -9 0
-1 9 0
-1 -13 0
1 13 0
c [by 2] add redundant clauses multiple times
c [by 2] add unit clauses of solver 0
c [by 0] learnt clause
c [by 1] learnt clause
1 0
1 0
9 0
-13 0
10 0
4 0
3 0
1 0
1 0
9 0
-13 0
10 0
4 0
3 0
0
